
  32    4
  10   10   10   10

   0   0   0   0   0   5 2 28 29 30 31 
   6   1   0   1   1   1 3 
   6   0   1   2   3   1 4 
   9   5   6   2   0   1 5 
   5   0   3   7   5   1 6 
   9   0  10   3   5   1 7 
   3   3   5   2   0   1 8 
   4   5   3   0   6   2 27 9 
   1   5   7   0   3   1 10 
   8   0   2   6   4   1 11 
  10   4   2   5   0   1 12 
   1   0   5   6   4   1 13 
   5   4   0   3   4   2 26 14 
   6   0   4   5   4   1 15 
  10   6   5   3   0   1 16 
  10   4   0   1   1   1 17 
   4   4   0   4   2   1 18 
   7   0   4   4   7   1 19 
  10   0   2   5   3   1 20 
   2   0   3   3   1   1 21 
   3   4   0   5   5   1 22 
   2   4   3   0   6   1 23 
   6   0   4   6   6   1 24 
   9   5   0   4   3   1 25 
   7   3   5   0   4   1 32
   7   2   2   3   0   1 32
   6   5   4   8   0   1 32
   8   0   4   5   6   1 32
   9   0   3   4   5   1 32
   1   0   5   3   3   1 32
   2   4   4   0   5   1 32
   0   0   0   0   0   0 
